111111111111111
100000100000001
101110111111101
101000101000001
101011101011111
101000001000001
101111101111101
100000100000101
101110111111101
100010001000001
111011101011111
100010101000001
101110101111101
100000100000001
111111111111111
